Optimal - objective value 3633.00000000
      2 x_0_3                   1                       0
     26 x_1_9                   1                    -192
     45 x_2_10                  1                       0
     55 x_3_1                   1                       0
     72 x_4_0                   1                       0
    107 x_5_18                  1                      80
    113 x_6_5                   1                       0
    128 x_7_2                   1                       0
    158 x_8_15                  1                       0
    177 x_9_16                  1                       0
    191 x_10_12                 1                       0
    210 x_11_13                 1                       0
    220 x_12_4                  1                       0
    240 x_13_6                  1                     -50
    263 x_14_11                 1                     228
    284 x_15_14                 1                       0
    304 x_16_17                 1                      98
    314 x_17_8                  1                      10
    331 x_18_7                  1                       0
    342 u_1                     2                       0
    343 u_2                    15                       0
    344 u_3                     1                       0
    345 u_4                    18                       0
    346 u_5                    12                       0
    347 u_6                    11                       0
    348 u_7                    14                       0
    349 u_8                     6                       0
    350 u_9                     3                       0
    351 u_10                   16                       0
    352 u_11                    9                       0
    353 u_12                   17                       0
    354 u_13                   10                       0
    355 u_14                    8                       0
    356 u_15                    7                       0
    357 u_16                    4                       0
    358 u_17                    5                       0
    359 u_18                   13                       0
